NAME: instance_2523
TYPE: TSP
DIMENSION: 20
EDGE_WEIGHT_TYPE: EUC_2D
NODE_COORD_SECTION
0 72.33 84.37
1 6.95 16.62
2 28.42 2.09
3 47.40 2.33
4 1.84 27.13
5 35.14 44.10
6 53.10 10.05
7 94.63 36.49
8 0.61 2.66
9 56.48 82.20
10 2.71 31.56
11 52.93 60.28
12 74.14 39.77
13 47.21 22.55
14 96.13 72.73
15 31.11 68.96
16 41.77 89.00
17 29.92 89.97
18 25.50 14.14
19 47.70 97.91
EOF
